p cnf 10 50
2 -7 -3 0
-4 -10 -1 0
2 5 -7 0
-10 5 2 0
-5 -10 -2 0
10 6 4 0
2 -9 4 0
-6 -5 4 0
6 -8 -9 0
-4 6 -5 0
5 -3 -7 0
-5 8 2 0
8 -5 -9 0
9 -3 -10 0
5 1 -4 0
7 8 3 0
10 1 -9 0
-4 2 -7 0
1 8 -5 0
-1 -8 -6 0
5 -1 -7 0
-1 -8 7 0
8 2 1 0
-4 -7 1 0
7 1 -5 0
-8 -4 2 0
3 -6 -4 0
-1 4 3 0
-8 -3 -9 0
-5 9 8 0
-2 3 7 0
4 -8 10 0
-9 5 -7 0
3 -2 -10 0
8 -9 4 0
-5 -6 3 0
1 2 -5 0
-3 -4 -5 0
9 1 7 0
-7 -2 -10 0
10 -8 -4 0
-6 8 10 0
-6 -10 9 0
-9 5 7 0
-8 -10 -4 0
9 -7 4 0
-5 -3 2 0
7 -9 -3 0
4 -3 7 0
9 8 5 0
